(set-logic QF_S)
(declare-fun V15 () String )
(declare-fun V25 () String )
(declare-fun V21 () String )
(declare-fun V18 () String )
(declare-fun V8 () String )
(declare-fun V6 () String )
(declare-fun V24 () String )
(declare-fun V10 () String )
(declare-fun V12 () String )
(declare-fun V22 () String )
(declare-fun V16 () String )
(declare-fun V23 () String )
(declare-fun V17 () String )
(declare-fun V20 () String )
(declare-fun V19 () String )
(declare-fun V14 () String )
(declare-fun V11 () String )
(declare-fun V9 () String )
(declare-fun V26 () String )
(declare-fun V7 () String )
(declare-fun V1 () String )
(assert (= (str.++ V11 V12 ) (str.++ (str.++ V17 V18 ) V19 ) ) )
(assert (= (str.++ V11 V12 ) (str.++ (str.++ V6 V7 ) V8 ) ) )
(assert (= (str.++ V11 V12 ) (str.++ (str.++ V9 " " ) V10 ) ) )
(assert (= (str.++ V11 V12 ) (str.++ (str.++ V25 " " ) V26 ) ) )
(assert (= (str.++ V11 V12 ) (str.++ (str.++ (str.++ V1 V23 ) "\x09" ) V24 ) ) )
(assert (= (str.++ (str.++ V23 "\x09" ) V24 ) (str.++ (str.++ V20 V21 ) V22 ) ) )
(assert (= (str.++ (str.++ V15 "\x09" ) V16 ) (str.++ (str.++ V14 V11 ) V12 ) ) )
( check-sat )
